(set-option :produce-models true)
(set-logic QF_LRA)
(set-info :notes | Strip-packing problem.|)
(declare-fun x0 () Real)
(declare-fun y0 () Real)
(declare-fun x1 () Real)
(declare-fun y1 () Real)
(declare-fun x2 () Real)
(declare-fun y2 () Real)
(declare-fun x3 () Real)
(declare-fun y3 () Real)
(declare-fun x4 () Real)
(declare-fun y4 () Real)
(declare-fun x5 () Real)
(declare-fun y5 () Real)
(declare-fun x6 () Real)
(declare-fun y6 () Real)
(declare-fun x7 () Real)
(declare-fun y7 () Real)
(declare-fun x8 () Real)
(declare-fun y8 () Real)
(declare-fun x9 () Real)
(declare-fun y9 () Real)
(declare-fun x10 () Real)
(declare-fun y10 () Real)
(declare-fun x11 () Real)
(declare-fun y11 () Real)
(declare-fun x12 () Real)
(declare-fun y12 () Real)
(declare-fun x13 () Real)
(declare-fun y13 () Real)
(declare-fun x14 () Real)
(declare-fun y14 () Real)
(declare-fun z () Real)
(declare-fun c () Real)
(assert (and (= c z) (and (>= x0 0) 
(and (>= y0 0) 
(and (>= x1 0) 
(and (>= y1 0) 
(and (>= x2 0) 
(and (>= y2 0) 
(and (>= x3 0) 
(and (>= y3 0) 
(and (>= x4 0) 
(and (>= y4 0) 
(and (>= x5 0) 
(and (>= y5 0) 
(and (>= x6 0) 
(and (>= y6 0) 
(and (>= x7 0) 
(and (>= y7 0) 
(and (>= x8 0) 
(and (>= y8 0) 
(and (>= x9 0) 
(and (>= y9 0) 
(and (>= x10 0) 
(and (>= y10 0) 
(and (>= x11 0) 
(and (>= y11 0) 
(and (>= x12 0) 
(and (>= y12 0) 
(and (>= x13 0) 
(and (>= y13 0) 
(and (>= x14 0) 
(and (>= y14 0) 
(and (>= z 0) 
(and (>= c 0) 
(and (<= (+ x0 0.8653083198) z) 
(and (<= 0.9653455676 y0) 
(and (<= y0 1.0) 
(and (<= x0 (- 5.3786080496 0.8653083198)) 
(and (>= x0 0) 
(and (<= (+ x1 0.1281627522) z) 
(and (<= 0.8953906893 y1) 
(and (<= y1 1.0) 
(and (<= x1 (- 5.3786080496 0.1281627522)) 
(and (>= x1 0) 
(and (<= (+ x2 0.4192428351) z) 
(and (<= 0.794276001 y2) 
(and (<= y2 1.0) 
(and (<= x2 (- 5.3786080496 0.4192428351)) 
(and (>= x2 0) 
(and (<= (+ x3 0.6465544481) z) 
(and (<= 0.7120805993 y3) 
(and (<= y3 1.0) 
(and (<= x3 (- 5.3786080496 0.6465544481)) 
(and (>= x3 0) 
(and (<= (+ x4 0.1318856679) z) 
(and (<= 0.6897242801 y4) 
(and (<= y4 1.0) 
(and (<= x4 (- 5.3786080496 0.1318856679)) 
(and (>= x4 0) 
(and (<= (+ x5 0.6233503695) z) 
(and (<= 0.6321672793 y5) 
(and (<= y5 1.0) 
(and (<= x5 (- 5.3786080496 0.6233503695)) 
(and (>= x5 0) 
(and (<= (+ x6 0.1961053266) z) 
(and (<= 0.5809693986 y6) 
(and (<= y6 1.0) 
(and (<= x6 (- 5.3786080496 0.1961053266)) 
(and (>= x6 0) 
(and (<= (+ x7 0.9587935344) z) 
(and (<= 0.5506003841 y7) 
(and (<= y7 1.0) 
(and (<= x7 (- 5.3786080496 0.9587935344)) 
(and (>= x7 0) 
(and (<= (+ x8 0.5103521108) z) 
(and (<= 0.5300395209 y8) 
(and (<= y8 1.0) 
(and (<= x8 (- 5.3786080496 0.5103521108)) 
(and (>= x8 0) 
(and (<= (+ x9 0.9265590276) z) 
(and (<= 0.4464688103 y9) 
(and (<= y9 1.0) 
(and (<= x9 (- 5.3786080496 0.9265590276)) 
(and (>= x9 0) 
(and (<= (+ x10 0.8988526852) z) 
(and (<= 0.3325601237 y10) 
(and (<= y10 1.0) 
(and (<= x10 (- 5.3786080496 0.8988526852)) 
(and (>= x10 0) 
(and (<= (+ x11 0.3880128592) z) 
(and (<= 0.274111813 y11) 
(and (<= y11 1.0) 
(and (<= x11 (- 5.3786080496 0.3880128592)) 
(and (>= x11 0) 
(and (<= (+ x12 0.2387626567) z) 
(and (<= 0.0865940744 y12) 
(and (<= y12 1.0) 
(and (<= x12 (- 5.3786080496 0.2387626567)) 
(and (>= x12 0) 
(and (<= (+ x13 0.3580306323) z) 
(and (<= 0.053514561 y13) 
(and (<= y13 1.0) 
(and (<= x13 (- 5.3786080496 0.3580306323)) 
(and (>= x13 0) 
(and (<= (+ x14 0.1230755503) z) 
(and (<= 0.0332690518 y14) 
(and (<= y14 1.0) 
(and (<= x14 (- 5.3786080496 0.1230755503)) 
(and (>= x14 0) 
(and (<= c 5.3786080496) 
(and (or (<= (+ x0 0.8653083198) x1) (or (<= (+ x1 0.1281627522) x0) (or (>= (- y0 0.9653455676) y1) (or (>= (- y1 0.8953906893) y0))))) 
(and (or (<= (+ x0 0.8653083198) x2) (or (<= (+ x2 0.4192428351) x0) (or (>= (- y0 0.9653455676) y2) (or (>= (- y2 0.794276001) y0))))) 
(and (or (<= (+ x0 0.8653083198) x3) (or (<= (+ x3 0.6465544481) x0) (or (>= (- y0 0.9653455676) y3) (or (>= (- y3 0.7120805993) y0))))) 
(and (or (<= (+ x0 0.8653083198) x4) (or (<= (+ x4 0.1318856679) x0) (or (>= (- y0 0.9653455676) y4) (or (>= (- y4 0.6897242801) y0))))) 
(and (or (<= (+ x0 0.8653083198) x5) (or (<= (+ x5 0.6233503695) x0) (or (>= (- y0 0.9653455676) y5) (or (>= (- y5 0.6321672793) y0))))) 
(and (or (<= (+ x0 0.8653083198) x6) (or (<= (+ x6 0.1961053266) x0) (or (>= (- y0 0.9653455676) y6) (or (>= (- y6 0.5809693986) y0))))) 
(and (or (<= (+ x0 0.8653083198) x7) (or (<= (+ x7 0.9587935344) x0) (or (>= (- y0 0.9653455676) y7) (or (>= (- y7 0.5506003841) y0))))) 
(and (or (<= (+ x0 0.8653083198) x8) (or (<= (+ x8 0.5103521108) x0) (or (>= (- y0 0.9653455676) y8) (or (>= (- y8 0.5300395209) y0))))) 
(and (or (<= (+ x0 0.8653083198) x9) (or (<= (+ x9 0.9265590276) x0) (or (>= (- y0 0.9653455676) y9) (or (>= (- y9 0.4464688103) y0))))) 
(and (or (<= (+ x0 0.8653083198) x10) (or (<= (+ x10 0.8988526852) x0) (or (>= (- y0 0.9653455676) y10) (or (>= (- y10 0.3325601237) y0))))) 
(and (or (<= (+ x0 0.8653083198) x11) (or (<= (+ x11 0.3880128592) x0) (or (>= (- y0 0.9653455676) y11) (or (>= (- y11 0.274111813) y0))))) 
(and (or (<= (+ x0 0.8653083198) x12) (or (<= (+ x12 0.2387626567) x0) (or (>= (- y0 0.9653455676) y12) (or (>= (- y12 0.0865940744) y0))))) 
(and (or (<= (+ x0 0.8653083198) x13) (or (<= (+ x13 0.3580306323) x0) (or (>= (- y0 0.9653455676) y13) (or (>= (- y13 0.053514561) y0))))) 
(and (or (<= (+ x0 0.8653083198) x14) (or (<= (+ x14 0.1230755503) x0) (or (>= (- y0 0.9653455676) y14) (or (>= (- y14 0.0332690518) y0))))) 
(and (or (<= (+ x1 0.1281627522) x2) (or (<= (+ x2 0.4192428351) x1) (or (>= (- y1 0.8953906893) y2) (or (>= (- y2 0.794276001) y1))))) 
(and (or (<= (+ x1 0.1281627522) x3) (or (<= (+ x3 0.6465544481) x1) (or (>= (- y1 0.8953906893) y3) (or (>= (- y3 0.7120805993) y1))))) 
(and (or (<= (+ x1 0.1281627522) x4) (or (<= (+ x4 0.1318856679) x1) (or (>= (- y1 0.8953906893) y4) (or (>= (- y4 0.6897242801) y1))))) 
(and (or (<= (+ x1 0.1281627522) x5) (or (<= (+ x5 0.6233503695) x1) (or (>= (- y1 0.8953906893) y5) (or (>= (- y5 0.6321672793) y1))))) 
(and (or (<= (+ x1 0.1281627522) x6) (or (<= (+ x6 0.1961053266) x1) (or (>= (- y1 0.8953906893) y6) (or (>= (- y6 0.5809693986) y1))))) 
(and (or (<= (+ x1 0.1281627522) x7) (or (<= (+ x7 0.9587935344) x1) (or (>= (- y1 0.8953906893) y7) (or (>= (- y7 0.5506003841) y1))))) 
(and (or (<= (+ x1 0.1281627522) x8) (or (<= (+ x8 0.5103521108) x1) (or (>= (- y1 0.8953906893) y8) (or (>= (- y8 0.5300395209) y1))))) 
(and (or (<= (+ x1 0.1281627522) x9) (or (<= (+ x9 0.9265590276) x1) (or (>= (- y1 0.8953906893) y9) (or (>= (- y9 0.4464688103) y1))))) 
(and (or (<= (+ x1 0.1281627522) x10) (or (<= (+ x10 0.8988526852) x1) (or (>= (- y1 0.8953906893) y10) (or (>= (- y10 0.3325601237) y1))))) 
(and (or (<= (+ x1 0.1281627522) x11) (or (<= (+ x11 0.3880128592) x1) (or (>= (- y1 0.8953906893) y11) (or (>= (- y11 0.274111813) y1))))) 
(and (or (<= (+ x1 0.1281627522) x12) (or (<= (+ x12 0.2387626567) x1) (or (>= (- y1 0.8953906893) y12) (or (>= (- y12 0.0865940744) y1))))) 
(and (or (<= (+ x1 0.1281627522) x13) (or (<= (+ x13 0.3580306323) x1) (or (>= (- y1 0.8953906893) y13) (or (>= (- y13 0.053514561) y1))))) 
(and (or (<= (+ x1 0.1281627522) x14) (or (<= (+ x14 0.1230755503) x1) (or (>= (- y1 0.8953906893) y14) (or (>= (- y14 0.0332690518) y1))))) 
(and (or (<= (+ x2 0.4192428351) x3) (or (<= (+ x3 0.6465544481) x2) (or (>= (- y2 0.794276001) y3) (or (>= (- y3 0.7120805993) y2))))) 
(and (or (<= (+ x2 0.4192428351) x4) (or (<= (+ x4 0.1318856679) x2) (or (>= (- y2 0.794276001) y4) (or (>= (- y4 0.6897242801) y2))))) 
(and (or (<= (+ x2 0.4192428351) x5) (or (<= (+ x5 0.6233503695) x2) (or (>= (- y2 0.794276001) y5) (or (>= (- y5 0.6321672793) y2))))) 
(and (or (<= (+ x2 0.4192428351) x6) (or (<= (+ x6 0.1961053266) x2) (or (>= (- y2 0.794276001) y6) (or (>= (- y6 0.5809693986) y2))))) 
(and (or (<= (+ x2 0.4192428351) x7) (or (<= (+ x7 0.9587935344) x2) (or (>= (- y2 0.794276001) y7) (or (>= (- y7 0.5506003841) y2))))) 
(and (or (<= (+ x2 0.4192428351) x8) (or (<= (+ x8 0.5103521108) x2) (or (>= (- y2 0.794276001) y8) (or (>= (- y8 0.5300395209) y2))))) 
(and (or (<= (+ x2 0.4192428351) x9) (or (<= (+ x9 0.9265590276) x2) (or (>= (- y2 0.794276001) y9) (or (>= (- y9 0.4464688103) y2))))) 
(and (or (<= (+ x2 0.4192428351) x10) (or (<= (+ x10 0.8988526852) x2) (or (>= (- y2 0.794276001) y10) (or (>= (- y10 0.3325601237) y2))))) 
(and (or (<= (+ x2 0.4192428351) x11) (or (<= (+ x11 0.3880128592) x2) (or (>= (- y2 0.794276001) y11) (or (>= (- y11 0.274111813) y2))))) 
(and (or (<= (+ x2 0.4192428351) x12) (or (<= (+ x12 0.2387626567) x2) (or (>= (- y2 0.794276001) y12) (or (>= (- y12 0.0865940744) y2))))) 
(and (or (<= (+ x2 0.4192428351) x13) (or (<= (+ x13 0.3580306323) x2) (or (>= (- y2 0.794276001) y13) (or (>= (- y13 0.053514561) y2))))) 
(and (or (<= (+ x2 0.4192428351) x14) (or (<= (+ x14 0.1230755503) x2) (or (>= (- y2 0.794276001) y14) (or (>= (- y14 0.0332690518) y2))))) 
(and (or (<= (+ x3 0.6465544481) x4) (or (<= (+ x4 0.1318856679) x3) (or (>= (- y3 0.7120805993) y4) (or (>= (- y4 0.6897242801) y3))))) 
(and (or (<= (+ x3 0.6465544481) x5) (or (<= (+ x5 0.6233503695) x3) (or (>= (- y3 0.7120805993) y5) (or (>= (- y5 0.6321672793) y3))))) 
(and (or (<= (+ x3 0.6465544481) x6) (or (<= (+ x6 0.1961053266) x3) (or (>= (- y3 0.7120805993) y6) (or (>= (- y6 0.5809693986) y3))))) 
(and (or (<= (+ x3 0.6465544481) x7) (or (<= (+ x7 0.9587935344) x3) (or (>= (- y3 0.7120805993) y7) (or (>= (- y7 0.5506003841) y3))))) 
(and (or (<= (+ x3 0.6465544481) x8) (or (<= (+ x8 0.5103521108) x3) (or (>= (- y3 0.7120805993) y8) (or (>= (- y8 0.5300395209) y3))))) 
(and (or (<= (+ x3 0.6465544481) x9) (or (<= (+ x9 0.9265590276) x3) (or (>= (- y3 0.7120805993) y9) (or (>= (- y9 0.4464688103) y3))))) 
(and (or (<= (+ x3 0.6465544481) x10) (or (<= (+ x10 0.8988526852) x3) (or (>= (- y3 0.7120805993) y10) (or (>= (- y10 0.3325601237) y3))))) 
(and (or (<= (+ x3 0.6465544481) x11) (or (<= (+ x11 0.3880128592) x3) (or (>= (- y3 0.7120805993) y11) (or (>= (- y11 0.274111813) y3))))) 
(and (or (<= (+ x3 0.6465544481) x12) (or (<= (+ x12 0.2387626567) x3) (or (>= (- y3 0.7120805993) y12) (or (>= (- y12 0.0865940744) y3))))) 
(and (or (<= (+ x3 0.6465544481) x13) (or (<= (+ x13 0.3580306323) x3) (or (>= (- y3 0.7120805993) y13) (or (>= (- y13 0.053514561) y3))))) 
(and (or (<= (+ x3 0.6465544481) x14) (or (<= (+ x14 0.1230755503) x3) (or (>= (- y3 0.7120805993) y14) (or (>= (- y14 0.0332690518) y3))))) 
(and (or (<= (+ x4 0.1318856679) x5) (or (<= (+ x5 0.6233503695) x4) (or (>= (- y4 0.6897242801) y5) (or (>= (- y5 0.6321672793) y4))))) 
(and (or (<= (+ x4 0.1318856679) x6) (or (<= (+ x6 0.1961053266) x4) (or (>= (- y4 0.6897242801) y6) (or (>= (- y6 0.5809693986) y4))))) 
(and (or (<= (+ x4 0.1318856679) x7) (or (<= (+ x7 0.9587935344) x4) (or (>= (- y4 0.6897242801) y7) (or (>= (- y7 0.5506003841) y4))))) 
(and (or (<= (+ x4 0.1318856679) x8) (or (<= (+ x8 0.5103521108) x4) (or (>= (- y4 0.6897242801) y8) (or (>= (- y8 0.5300395209) y4))))) 
(and (or (<= (+ x4 0.1318856679) x9) (or (<= (+ x9 0.9265590276) x4) (or (>= (- y4 0.6897242801) y9) (or (>= (- y9 0.4464688103) y4))))) 
(and (or (<= (+ x4 0.1318856679) x10) (or (<= (+ x10 0.8988526852) x4) (or (>= (- y4 0.6897242801) y10) (or (>= (- y10 0.3325601237) y4))))) 
(and (or (<= (+ x4 0.1318856679) x11) (or (<= (+ x11 0.3880128592) x4) (or (>= (- y4 0.6897242801) y11) (or (>= (- y11 0.274111813) y4))))) 
(and (or (<= (+ x4 0.1318856679) x12) (or (<= (+ x12 0.2387626567) x4) (or (>= (- y4 0.6897242801) y12) (or (>= (- y12 0.0865940744) y4))))) 
(and (or (<= (+ x4 0.1318856679) x13) (or (<= (+ x13 0.3580306323) x4) (or (>= (- y4 0.6897242801) y13) (or (>= (- y13 0.053514561) y4))))) 
(and (or (<= (+ x4 0.1318856679) x14) (or (<= (+ x14 0.1230755503) x4) (or (>= (- y4 0.6897242801) y14) (or (>= (- y14 0.0332690518) y4))))) 
(and (or (<= (+ x5 0.6233503695) x6) (or (<= (+ x6 0.1961053266) x5) (or (>= (- y5 0.6321672793) y6) (or (>= (- y6 0.5809693986) y5))))) 
(and (or (<= (+ x5 0.6233503695) x7) (or (<= (+ x7 0.9587935344) x5) (or (>= (- y5 0.6321672793) y7) (or (>= (- y7 0.5506003841) y5))))) 
(and (or (<= (+ x5 0.6233503695) x8) (or (<= (+ x8 0.5103521108) x5) (or (>= (- y5 0.6321672793) y8) (or (>= (- y8 0.5300395209) y5))))) 
(and (or (<= (+ x5 0.6233503695) x9) (or (<= (+ x9 0.9265590276) x5) (or (>= (- y5 0.6321672793) y9) (or (>= (- y9 0.4464688103) y5))))) 
(and (or (<= (+ x5 0.6233503695) x10) (or (<= (+ x10 0.8988526852) x5) (or (>= (- y5 0.6321672793) y10) (or (>= (- y10 0.3325601237) y5))))) 
(and (or (<= (+ x5 0.6233503695) x11) (or (<= (+ x11 0.3880128592) x5) (or (>= (- y5 0.6321672793) y11) (or (>= (- y11 0.274111813) y5))))) 
(and (or (<= (+ x5 0.6233503695) x12) (or (<= (+ x12 0.2387626567) x5) (or (>= (- y5 0.6321672793) y12) (or (>= (- y12 0.0865940744) y5))))) 
(and (or (<= (+ x5 0.6233503695) x13) (or (<= (+ x13 0.3580306323) x5) (or (>= (- y5 0.6321672793) y13) (or (>= (- y13 0.053514561) y5))))) 
(and (or (<= (+ x5 0.6233503695) x14) (or (<= (+ x14 0.1230755503) x5) (or (>= (- y5 0.6321672793) y14) (or (>= (- y14 0.0332690518) y5))))) 
(and (or (<= (+ x6 0.1961053266) x7) (or (<= (+ x7 0.9587935344) x6) (or (>= (- y6 0.5809693986) y7) (or (>= (- y7 0.5506003841) y6))))) 
(and (or (<= (+ x6 0.1961053266) x8) (or (<= (+ x8 0.5103521108) x6) (or (>= (- y6 0.5809693986) y8) (or (>= (- y8 0.5300395209) y6))))) 
(and (or (<= (+ x6 0.1961053266) x9) (or (<= (+ x9 0.9265590276) x6) (or (>= (- y6 0.5809693986) y9) (or (>= (- y9 0.4464688103) y6))))) 
(and (or (<= (+ x6 0.1961053266) x10) (or (<= (+ x10 0.8988526852) x6) (or (>= (- y6 0.5809693986) y10) (or (>= (- y10 0.3325601237) y6))))) 
(and (or (<= (+ x6 0.1961053266) x11) (or (<= (+ x11 0.3880128592) x6) (or (>= (- y6 0.5809693986) y11) (or (>= (- y11 0.274111813) y6))))) 
(and (or (<= (+ x6 0.1961053266) x12) (or (<= (+ x12 0.2387626567) x6) (or (>= (- y6 0.5809693986) y12) (or (>= (- y12 0.0865940744) y6))))) 
(and (or (<= (+ x6 0.1961053266) x13) (or (<= (+ x13 0.3580306323) x6) (or (>= (- y6 0.5809693986) y13) (or (>= (- y13 0.053514561) y6))))) 
(and (or (<= (+ x6 0.1961053266) x14) (or (<= (+ x14 0.1230755503) x6) (or (>= (- y6 0.5809693986) y14) (or (>= (- y14 0.0332690518) y6))))) 
(and (or (<= (+ x7 0.9587935344) x8) (or (<= (+ x8 0.5103521108) x7) (or (>= (- y7 0.5506003841) y8) (or (>= (- y8 0.5300395209) y7))))) 
(and (or (<= (+ x7 0.9587935344) x9) (or (<= (+ x9 0.9265590276) x7) (or (>= (- y7 0.5506003841) y9) (or (>= (- y9 0.4464688103) y7))))) 
(and (or (<= (+ x7 0.9587935344) x10) (or (<= (+ x10 0.8988526852) x7) (or (>= (- y7 0.5506003841) y10) (or (>= (- y10 0.3325601237) y7))))) 
(and (or (<= (+ x7 0.9587935344) x11) (or (<= (+ x11 0.3880128592) x7) (or (>= (- y7 0.5506003841) y11) (or (>= (- y11 0.274111813) y7))))) 
(and (or (<= (+ x7 0.9587935344) x12) (or (<= (+ x12 0.2387626567) x7) (or (>= (- y7 0.5506003841) y12) (or (>= (- y12 0.0865940744) y7))))) 
(and (or (<= (+ x7 0.9587935344) x13) (or (<= (+ x13 0.3580306323) x7) (or (>= (- y7 0.5506003841) y13) (or (>= (- y13 0.053514561) y7))))) 
(and (or (<= (+ x7 0.9587935344) x14) (or (<= (+ x14 0.1230755503) x7) (or (>= (- y7 0.5506003841) y14) (or (>= (- y14 0.0332690518) y7))))) 
(and (or (<= (+ x8 0.5103521108) x9) (or (<= (+ x9 0.9265590276) x8) (or (>= (- y8 0.5300395209) y9) (or (>= (- y9 0.4464688103) y8))))) 
(and (or (<= (+ x8 0.5103521108) x10) (or (<= (+ x10 0.8988526852) x8) (or (>= (- y8 0.5300395209) y10) (or (>= (- y10 0.3325601237) y8))))) 
(and (or (<= (+ x8 0.5103521108) x11) (or (<= (+ x11 0.3880128592) x8) (or (>= (- y8 0.5300395209) y11) (or (>= (- y11 0.274111813) y8))))) 
(and (or (<= (+ x8 0.5103521108) x12) (or (<= (+ x12 0.2387626567) x8) (or (>= (- y8 0.5300395209) y12) (or (>= (- y12 0.0865940744) y8))))) 
(and (or (<= (+ x8 0.5103521108) x13) (or (<= (+ x13 0.3580306323) x8) (or (>= (- y8 0.5300395209) y13) (or (>= (- y13 0.053514561) y8))))) 
(and (or (<= (+ x8 0.5103521108) x14) (or (<= (+ x14 0.1230755503) x8) (or (>= (- y8 0.5300395209) y14) (or (>= (- y14 0.0332690518) y8))))) 
(and (or (<= (+ x9 0.9265590276) x10) (or (<= (+ x10 0.8988526852) x9) (or (>= (- y9 0.4464688103) y10) (or (>= (- y10 0.3325601237) y9))))) 
(and (or (<= (+ x9 0.9265590276) x11) (or (<= (+ x11 0.3880128592) x9) (or (>= (- y9 0.4464688103) y11) (or (>= (- y11 0.274111813) y9))))) 
(and (or (<= (+ x9 0.9265590276) x12) (or (<= (+ x12 0.2387626567) x9) (or (>= (- y9 0.4464688103) y12) (or (>= (- y12 0.0865940744) y9))))) 
(and (or (<= (+ x9 0.9265590276) x13) (or (<= (+ x13 0.3580306323) x9) (or (>= (- y9 0.4464688103) y13) (or (>= (- y13 0.053514561) y9))))) 
(and (or (<= (+ x9 0.9265590276) x14) (or (<= (+ x14 0.1230755503) x9) (or (>= (- y9 0.4464688103) y14) (or (>= (- y14 0.0332690518) y9))))) 
(and (or (<= (+ x10 0.8988526852) x11) (or (<= (+ x11 0.3880128592) x10) (or (>= (- y10 0.3325601237) y11) (or (>= (- y11 0.274111813) y10))))) 
(and (or (<= (+ x10 0.8988526852) x12) (or (<= (+ x12 0.2387626567) x10) (or (>= (- y10 0.3325601237) y12) (or (>= (- y12 0.0865940744) y10))))) 
(and (or (<= (+ x10 0.8988526852) x13) (or (<= (+ x13 0.3580306323) x10) (or (>= (- y10 0.3325601237) y13) (or (>= (- y13 0.053514561) y10))))) 
(and (or (<= (+ x10 0.8988526852) x14) (or (<= (+ x14 0.1230755503) x10) (or (>= (- y10 0.3325601237) y14) (or (>= (- y14 0.0332690518) y10))))) 
(and (or (<= (+ x11 0.3880128592) x12) (or (<= (+ x12 0.2387626567) x11) (or (>= (- y11 0.274111813) y12) (or (>= (- y12 0.0865940744) y11))))) 
(and (or (<= (+ x11 0.3880128592) x13) (or (<= (+ x13 0.3580306323) x11) (or (>= (- y11 0.274111813) y13) (or (>= (- y13 0.053514561) y11))))) 
(and (or (<= (+ x11 0.3880128592) x14) (or (<= (+ x14 0.1230755503) x11) (or (>= (- y11 0.274111813) y14) (or (>= (- y14 0.0332690518) y11))))) 
(and (or (<= (+ x12 0.2387626567) x13) (or (<= (+ x13 0.3580306323) x12) (or (>= (- y12 0.0865940744) y13) (or (>= (- y13 0.053514561) y12))))) 
(and (or (<= (+ x12 0.2387626567) x14) (or (<= (+ x14 0.1230755503) x12) (or (>= (- y12 0.0865940744) y14) (or (>= (- y14 0.0332690518) y12))))) 
(and (or (<= (+ x13 0.3580306323) x14) (or (<= (+ x14 0.1230755503) x13) (or (>= (- y13 0.053514561) y14) (or (>= (- y14 0.0332690518) y13))))) )))))))))))))))))))))))))))))))))))))))))))))))))))))))))))))))))))))))))))))))))))))))))))))))))))))))))))))))))))))))))))))))))))))))))))))))))))))))))))))))))))))))))))))))))))))))))))))))))))))))))))))))))))))))
(minimize c)
(check-sat)
(get-objectives)
(exit)
